data;


param FN:= 2;
param D:= 100;
param U_Original:=
         1         1       -6.550017e-01
         2         1        2.657175e-01
         3         1       -1.121242e+00
         4         1        2.370697e+00
         5         1       -9.003845e-01
         6         1        7.274712e-01
         7         1       -2.266718e-02
         8         1       -1.161429e+00
         9         1        4.004368e-01
        10         1        1.562504e+00
        11         1       -1.064961e+00
        12         1        5.117400e-01
        13         1        8.422898e-01
        14         1       -2.813220e+00
        15         1        1.615082e-01
        16         1       -1.447931e+00
        17         1        9.142050e-01
        18         1        3.675182e-01
        19         1        8.865578e-01
        20         1       -4.835246e-01
        21         1        4.221529e-01
        22         1        1.622553e+00
        23         1       -5.945639e-02
        24         1       -8.059809e-01
        25         1       -3.116632e-01
        26         1        6.800533e-01
        27         1       -1.680977e-01
        28         1       -3.517367e-02
        29         1        1.709105e+00
        30         1       -7.802256e-01
        31         1       -9.793415e-01
        32         1       -1.371365e+00
        33         1        1.580835e+00
        34         1        1.178658e+00
        35         1        1.071829e+00
        36         1       -1.167608e+00
        37         1        9.214708e-01
        38         1       -7.939886e-01
        39         1        3.324610e-01
        40         1       -1.111909e+00
        41         1       -2.010658e-01
        42         1        7.819029e-01
        43         1        2.332113e-01
        44         1        1.605167e+00
        45         1        1.132907e+00
        46         1       -1.718070e+00
        47         1       -1.121375e+00
        48         1       -9.928069e-01
        49         1       -5.734439e-01
        50         1        1.885755e+00
        51         1        2.114829e+00
        52         1       -1.495438e-01
        53         1        2.514306e-01
        54         1        4.553893e-02
        55         1       -5.644980e-02
        56         1       -1.117269e+00
        57         1        3.661914e-01
        58         1       -2.613421e-01
        59         1        7.767497e-01
        60         1        1.748533e-01
        61         1        2.847833e-01
        62         1        3.426557e+00
        63         1        1.417700e+00
        64         1        1.010026e+00
        65         1        1.859080e-01
        66         1       -2.210044e-01
        67         1       -7.806864e-01
        68         1        5.585907e-01
        69         1       -7.921408e-02
        70         1        1.010551e+00
        71         1       -9.678925e-01
        72         1        5.403954e-01
        73         1        1.687432e+00
        74         1       -2.146776e+00
        75         1       -1.451511e+00
        76         1        7.153062e-01
        77         1        1.399812e-02
        78         1       -3.804064e-01
        79         1        4.413466e-01
        80         1        9.445412e-01
        81         1        1.329730e+00
        82         1        1.235856e+00
        83         1       -4.674161e-01
        84         1       -9.851647e-01
        85         1        9.998843e-01
        86         1       -5.231342e-01
        87         1        1.002793e-01
        88         1        7.871067e-01
        89         1        7.695645e-01
        90         1        5.981138e-01
        91         1        9.362943e-02
        92         1       -8.203702e-01
        93         1       -8.955661e-01
        94         1       -7.798918e-01
        95         1        1.143701e-01
        96         1        2.849673e-01
        97         1       -1.942624e+00
        98         1        1.975848e-01
        99         1        1.127200e+00
       100         1       -1.442903e+00
         1         2        7.124188e-01
         2         2        6.689351e-01
         3         2        2.020408e-01
         4         2        2.426924e-01
         5         2       -1.674402e-01
         6         2       -1.937175e+00
         7         2        7.883015e-01
         8         2       -5.807896e-01
         9         2       -4.021632e-02
        10         2       -8.005117e-01
        11         2        8.918843e-01
        12         2       -1.006591e+00
        13         2       -6.184157e-01
        14         2       -9.647703e-01
        15         2        1.461984e-01
        16         2        1.012592e+00
        17         2        9.148228e-01
        18         2        2.928234e-02
        19         2       -1.001177e+00
        20         2       -1.103894e+00
        21         2        1.271468e+00
        22         2        3.010228e-01
        23         2       -1.620967e+00
        24         2        1.186108e+00
        25         2        6.181284e-01
        26         2        1.907056e+00
        27         2        1.511837e+00
        28         2       -1.531099e-01
        29         2       -1.931734e+00
        30         2        1.108975e+00
        31         2       -6.951060e-02
        32         2        7.138852e-01
        33         2       -2.571158e-01
        34         2       -3.699269e-01
        35         2        1.394795e+00
        36         2        6.765974e-01
        37         2       -6.077179e-01
        38         2        3.723094e-01
        39         2       -5.326516e-01
        40         2        1.469914e+00
        41         2       -1.012746e-01
        42         2       -2.852590e-01
        43         2       -1.279587e+00
        44         2        1.804403e+00
        45         2        1.153328e+00
        46         2       -3.545285e-01
        47         2        1.137446e+00
        48         2        7.815995e-02
        49         2        6.907157e-01
        50         2        1.324915e+00
        51         2       -1.456440e+00
        52         2        1.391459e-01
        53         2        2.648511e-01
        54         2        4.003089e-01
        55         2        7.857142e-02
        56         2        1.050158e-01
        57         2       -4.266368e-01
        58         2        6.357056e-01
        59         2       -4.130892e-01
        60         2        7.058976e-01
        61         2       -1.259103e+00
        62         2       -2.606804e-01
        63         2       -3.324569e-01
        64         2        1.132522e-01
        65         2        8.353835e-01
        66         2       -6.216024e-01
        67         2       -7.011366e-01
        68         2        5.931963e-01
        69         2        3.374702e-01
        70         2       -2.112921e+00
        71         2       -1.877269e+00
        72         2        6.401678e-01
        73         2       -1.498447e+00
        74         2        1.345761e-01
        75         2        3.607996e-01
        76         2       -1.194853e-01
        77         2       -6.774821e-01
        78         2        1.606491e+00
        79         2       -4.343507e-01
        80         2       -4.152364e-01
        81         2       -1.062879e+00
        82         2        7.208886e-01
        83         2       -9.967250e-01
        84         2       -1.125427e+00
        85         2        1.158042e+00
        86         2        1.350980e+00
        87         2       -3.428720e-01
        88         2        5.006110e-01
        89         2       -9.753198e-01
        90         2       -8.801539e-01
        91         2       -1.264133e-01
        92         2       -1.630552e+00
        93         2        2.785055e-03
        94         2       -6.517187e-01
        95         2       -1.576418e-01
        96         2        2.276037e-01
        97         2        1.529943e+00
        98         2        1.015489e+00
        99         2        6.139238e-01
       100         2        1.629924e-01
         1         3       -3.187700e-01
         2         3        2.051065e+00
         3         3       -1.372695e+00
         4         3       -4.868434e-02
         5         3       -1.167258e-01
         6         3       -4.245267e-01
         7         3       -1.164449e+00
         8         3       -1.300085e+00
         9         3       -6.048896e-01
        10         3        9.287095e-01
        11         3       -2.060428e+00
        12         3       -2.266850e-01
        13         3        6.430484e-01
        14         3        1.132990e+00
        15         3        2.587196e-01
        16         3       -4.017855e-01
        17         3        2.934596e-01
        18         3       -3.589225e-01
        19         3       -4.091699e-01
        20         3       -1.189127e-01
        21         3       -7.519337e-01
        22         3       -4.673783e-01
        23         3       -1.538009e-01
        24         3       -8.177035e-01
        25         3        4.484781e-01
        26         3       -3.403235e-01
        27         3       -3.668616e-01
        28         3        2.087401e+00
        29         3       -6.279393e-01
        30         3        1.589056e+00
        31         3        2.579671e-01
        32         3       -3.133155e-01
        33         3       -1.244564e+00
        34         3       -1.194021e+00
        35         3        7.673400e-01
        36         3        1.966713e+00
        37         3        4.557710e-01
        38         3        8.619042e-01
        39         3       -3.271189e-01
        40         3       -6.982760e-02
        41         3        9.033214e-01
        42         3        9.013435e-03
        43         3        1.199044e-01
        44         3       -3.436871e-01
        45         3        6.634653e-02
        46         3        7.981528e-01
        47         3        2.872739e-01
        48         3        2.695228e+00
        49         3       -3.813224e-02
        50         3       -4.568367e-01
        51         3       -1.123963e+00
        52         3        4.783179e-01
        53         3       -4.351303e-01
        54         3        1.338650e-01
        55         3       -4.266297e-01
        56         3       -5.623619e-01
        57         3       -6.320566e-01
        58         3       -8.638609e-01
        59         3        4.835032e-02
        60         3       -1.745959e-01
        61         3        9.629028e-01
        62         3        6.600356e-01
        63         3        1.288893e+00
        64         3       -1.660309e+00
        65         3        5.412214e-01
        66         3       -8.292293e-01
        67         3        6.824052e-01
        68         3       -3.848136e-01
        69         3        1.279367e+00
        70         3       -1.532025e+00
        71         3       -1.609948e+00
        72         3       -1.735018e+00
        73         3        6.652092e-01
        74         3        7.401918e-01
        75         3       -4.261609e-01
        76         3        3.913245e-01
        77         3       -1.367266e+00
        78         3        1.566937e-01
        79         3        1.235848e-02
        80         3        1.260094e+00
        81         3        1.514722e-01
        82         3       -1.027636e-01
        83         3        8.408056e-01
        84         3       -5.017015e-01
        85         3        2.224326e-01
        86         3        7.749723e-01
        87         3        8.770369e-01
        88         3        8.598753e-01
        89         3       -1.005404e+00
        90         3        6.607000e-01
        91         3       -1.400617e+00
        92         3        5.174235e-01
        93         3        2.491830e-01
        94         3        7.771606e-01
        95         3        4.707943e-01
        96         3        9.624157e-01
        97         3       -8.418995e-01
        98         3       -3.618406e-01
        99         3        6.518056e-01
       100         3        5.612704e-02
         1         4       -1.589081e+00
         2         4       -6.058001e-02
         3         4       -8.730961e-01
         4         4        8.902658e-01
         5         4       -6.570747e-01
         6         4        6.936476e-01
         7         4       -2.426296e+00
         8         4       -4.484273e-01
         9         4       -1.060526e+00
        10         4       -3.127728e-01
        11         4       -2.625061e+00
        12         4        1.437824e-01
        13         4       -4.385721e-01
        14         4        3.496874e-01
        15         4       -2.967969e-01
        16         4        1.489016e-01
        17         4       -1.373169e-01
        18         4        6.717452e-02
        19         4       -1.159347e+00
        20         4        2.017702e+00
        21         4        3.435596e-01
        22         4       -1.679055e+00
        23         4       -5.610008e-01
        24         4        1.740698e+00
        25         4       -7.657771e-01
        26         4       -1.013991e+00
        27         4        8.207588e-01
        28         4       -3.600014e-01
        29         4       -1.219619e+00
        30         4       -8.660726e-01
        31         4       -2.859991e-01
        32         4        4.191332e-01
        33         4       -1.061240e+00
        34         4       -1.545535e+00
        35         4        7.699991e-01
        36         4       -1.626925e+00
        37         4        1.361516e+00
        38         4       -7.563619e-01
        39         4        1.045615e+00
        40         4        1.619982e+00
        41         4       -7.664893e-01
        42         4        1.790034e+00
        43         4        6.522137e-01
        44         4        1.566081e+00
        45         4        1.227915e+00
        46         4        7.969927e-01
        47         4        6.734655e-01
        48         4        2.478798e+00
        49         4        1.236305e+00
        50         4       -7.972053e-01
        51         4        6.345613e-01
        52         4       -1.921115e-01
        53         4        1.771524e+00
        54         4        9.763404e-01
        55         4       -2.521968e-01
        56         4        1.167528e+00
        57         4       -8.563736e-01
        58         4        9.098026e-01
        59         4        2.044119e+00
        60         4       -1.136291e-01
        61         4       -1.066608e+00
        62         4       -2.376969e+00
        63         4        1.977974e+00
        64         4        2.611647e+00
        65         4        5.503616e-01
        66         4        6.168738e-01
        67         4        3.411543e-01
        68         4       -9.350722e-01
        69         4        1.249543e+00
        70         4        6.854017e-01
        71         4        9.997198e-01
        72         4       -5.554435e-01
        73         4       -8.164603e-01
        74         4       -8.990501e-01
        75         4        4.957388e-01
        76         4        4.237100e-01
        77         4        1.223024e+00
        78         4        3.728971e-01
        79         4        3.805253e-01
        80         4        4.520159e-01
        81         4        1.167077e+00
        82         4       -2.326407e+00
        83         4       -1.142102e+00
        84         4        5.539368e-01
        85         4        4.189608e-01
        86         4       -2.777768e-01
        87         4       -1.797913e-01
        88         4       -2.295124e-01
        89         4       -1.573673e+00
        90         4        1.325242e+00
        91         4        3.962766e-01
        92         4       -2.823286e-01
        93         4        1.055881e+00
        94         4        1.255927e+00
        95         4        1.225142e+00
        96         4       -1.768270e+00
        97         4       -7.483992e-01
        98         4        3.376679e-01
        99         4       -1.200263e+00
       100         4        1.054550e+00
         1         5       -7.580804e-01
         2         5        9.231604e-02
         3         5       -1.527867e-01
         4         5       -5.867432e-01
         5         5       -1.378713e+00
         6         5        6.053871e-01
         7         5       -7.123039e-01
         8         5        3.910709e-02
         9         5       -1.924871e+00
        10         5       -5.466941e-03
        11         5       -1.090858e+00
        12         5       -4.840471e-01
        13         5        3.458895e-01
        14         5        9.634831e-01
        15         5       -8.651450e-01
        16         5        3.604008e-01
        17         5        1.437255e+00
        18         5        4.625168e-02
        19         5        1.050515e+00
        20         5       -5.950827e-01
        21         5        2.566483e-01
        22         5       -4.873066e-01
        23         5       -9.136082e-01
        24         5       -3.039759e-01
        25         5       -2.810719e-01
        26         5       -1.026976e+00
        27         5       -1.518734e+00
        28         5       -1.142703e+00
        29         5       -4.049915e-01
        30         5        7.613333e-01
        31         5       -1.476808e+00
        32         5       -1.983294e+00
        33         5       -3.539544e-01
        34         5       -1.923677e-01
        35         5        8.949928e-01
        36         5       -5.705650e-01
        37         5       -5.534360e-02
        38         5        1.078904e+00
        39         5       -1.337419e+00
        40         5        4.785820e-01
        41         5       -3.291735e-01
        42         5        1.512940e+00
        43         5        9.340898e-02
        44         5        9.901402e-01
        45         5       -8.112705e-01
        46         5        7.612854e-01
        47         5       -3.462730e-01
        48         5        4.567347e-01
        49         5       -7.611844e-01
        50         5        1.245488e+00
        51         5        3.845891e-01
        52         5        2.834340e-01
        53         5       -4.429409e-01
        54         5        1.135260e+00
        55         5        9.607071e-01
        56         5        2.346111e-01
        57         5        1.907861e+00
        58         5        9.985131e-01
        59         5        1.183842e-01
        60         5       -2.610866e+00
        61         5       -5.283816e-01
        62         5        1.791143e+00
        63         5        1.508732e-01
        64         5       -9.361350e-01
        65         5       -4.995211e-01
        66         5        1.958714e+00
        67         5       -6.211187e-02
        68         5        1.844474e+00
        69         5        5.179174e-01
        70         5        1.068085e+00
        71         5        1.583290e+00
        72         5        5.762225e-01
        73         5        5.249976e-01
        74         5        8.769600e-01
        75         5        2.813139e+00
        76         5        6.938232e-01
        77         5       -9.345260e-01
        78         5        8.948480e-01
        79         5        1.124207e+00
        80         5       -2.048619e+00
        81         5        1.169618e-01
        82         5        9.040740e-01
        83         5       -2.052553e-01
        84         5       -9.295327e-01
        85         5       -7.183579e-01
        86         5       -4.608530e-01
        87         5        5.268839e-01
        88         5        8.847636e-01
        89         5        5.494711e-01
        90         5       -5.219287e-01
        91         5        7.220769e-01
        92         5        1.465592e-01
        93         5       -5.925478e-01
        94         5       -1.324116e+00
        95         5       -5.322457e-01
        96         5       -2.429409e-01
        97         5        2.750606e-01
        98         5       -2.097017e-01
        99         5        5.894141e-01
       100         5       -5.845054e-02
;
param X_Original:=
    1        5.647976e-01
    2        9.829797e-01
    3       -5.956903e-01
    4        5.156803e-01
    5       -1.887772e+00
    6       -3.365021e-01
    7        1.354408e+00
    8       -5.140945e-01
    9       -7.210829e-01
   10       -1.275719e-01
   11       -1.614329e+00
   12       -1.439214e+00
   13       -1.192958e+00
   14        1.275025e-01
   15       -7.168178e-02
   16       -2.633817e-01
   17       -1.191336e+00
   18       -4.169489e-01
   19        1.404132e+00
   20       -5.394448e-01
   21       -1.261091e-01
   22        1.100639e+00
   23       -1.496678e+00
   24       -1.000810e-01
   25       -1.127223e+00
   26       -4.288699e-01
   27        1.684449e-01
   28        5.225977e-01
   29       -1.595730e+00
   30        1.264189e+00
   31       -1.753759e+00
   32       -1.187895e-01
   33       -8.237434e-01
   34        3.919721e-02
   35        2.068590e+00
   36        1.040673e+00
   37       -9.843865e-01
   38       -9.561839e-01
   39       -4.890549e-01
   40       -4.120486e-01
   41       -4.786839e-01
   42       -5.161881e-01
   43       -3.294542e+00
   44       -4.004027e-01
   45       -6.918420e-01
   46        7.415900e-01
   47       -1.183374e+00
   48        6.757156e-01
   49       -2.080168e-01
   50       -1.543803e+00
   51        9.138558e-01
   52       -8.662102e-01
   53        2.753982e+00
   54        5.194091e-01
   55        1.143766e+00
   56       -1.187760e+00
   57        1.153257e-01
   58       -8.674105e-01
   59       -5.277086e-01
   60       -6.192161e-01
   61        7.537787e-02
   62       -9.479994e-01
   63       -3.992233e-01
   64        5.183564e+00
   65        9.503937e-01
   66        1.729256e-01
   67       -6.018130e-01
   68       -3.940416e-01
   69       -7.433352e-01
   70       -6.916883e-01
   71       -5.071529e-01
   72        4.923123e-01
   73        8.402558e-01
   74       -4.137187e-01
   75        6.826262e-01
   76        7.213273e-01
   77       -4.422313e-01
   78        5.099390e-01
   79        6.369232e-01
   80        2.127062e+00
   81        1.158937e+00
   82       -1.870717e+00
   83       -9.943919e-01
   84       -2.426707e-01
   85        7.901093e-01
   86        1.302879e+00
   87        9.439554e-01
   88        2.174433e-01
   89       -2.238238e+00
   90       -5.713642e-01
   91        8.138828e-01
   92       -9.980044e-01
   93        9.893658e-02
   94        8.751480e-01
   95       -5.075172e-01
   96       -5.815320e-02
   97        8.943307e-03
   98       -1.806490e-01
   99       -1.300979e+00
  100        4.942245e-01
;
param outliervec_original :=
    1    1
    2    1
    3    1
    4    1
    5    1
    6    1
    7    0
    8    1
    9    1
   10    1
   11    1
   12    1
   13    1
   14    1
   15    1
   16    1
   17    1
   18    1
   19    1
   20    1
   21    1
   22    1
   23    1
   24    1
   25    1
   26    1
   27    1
   28    1
   29    0
   30    1
   31    1
   32    1
   33    1
   34    0
   35    1
   36    1
   37    1
   38    1
   39    1
   40    1
   41    1
   42    1
   43    1
   44    1
   45    1
   46    1
   47    1
   48    1
   49    1
   50    1
   51    1
   52    0
   53    0
   54    1
   55    1
   56    1
   57    1
   58    1
   59    1
   60    1
   61    1
   62    1
   63    1
   64    0
   65    1
   66    1
   67    1
   68    1
   69    1
   70    1
   71    1
   72    1
   73    1
   74    1
   75    1
   76    1
   77    1
   78    0
   79    1
   80    1
   81    1
   82    0
   83    1
   84    1
   85    1
   86    1
   87    1
   88    1
   89    0
   90    1
   91    1
   92    1
   93    1
   94    1
   95    1
   96    1
   97    1
   98    1
   99    0
  100    1
;
param d:= 55;
param r:=5;
param p:=0.900000;
param M:=1000;
param U:=
         1         1        2.657175e-01
         2         1       -1.121242e+00
         3         1       -9.003845e-01
         4         1        7.274712e-01
         5         1       -1.161429e+00
         6         1        4.004368e-01
         7         1        1.562504e+00
         8         1       -1.064961e+00
         9         1        8.422898e-01
        10         1        1.615082e-01
        11         1       -1.447931e+00
        12         1        3.675182e-01
        13         1       -5.945639e-02
        14         1       -3.116632e-01
        15         1        6.800533e-01
        16         1        1.709105e+00
        17         1       -9.793415e-01
        18         1       -1.371365e+00
        19         1        1.580835e+00
        20         1        1.071829e+00
        21         1       -7.939886e-01
        22         1       -2.010658e-01
        23         1       -1.718070e+00
        24         1        2.114829e+00
        25         1       -1.495438e-01
        26         1        2.514306e-01
        27         1        4.553893e-02
        28         1        3.661914e-01
        29         1        1.748533e-01
        30         1        3.426557e+00
        31         1        1.010026e+00
        32         1        1.859080e-01
        33         1       -2.210044e-01
        34         1       -7.806864e-01
        35         1        5.585907e-01
        36         1       -9.678925e-01
        37         1        5.403954e-01
        38         1       -1.451511e+00
        39         1        7.153062e-01
        40         1       -3.804064e-01
        41         1        4.413466e-01
        42         1        1.329730e+00
        43         1        1.235856e+00
        44         1       -4.674161e-01
        45         1       -9.851647e-01
        46         1        9.998843e-01
        47         1        7.871067e-01
        48         1        7.695645e-01
        49         1        9.362943e-02
        50         1       -8.203702e-01
        51         1       -8.955661e-01
        52         1       -7.798918e-01
        53         1       -1.942624e+00
        54         1        1.127200e+00
        55         1       -1.442903e+00
         1         2        6.689351e-01
         2         2        2.020408e-01
         3         2       -1.674402e-01
         4         2       -1.937175e+00
         5         2       -5.807896e-01
         6         2       -4.021632e-02
         7         2       -8.005117e-01
         8         2        8.918843e-01
         9         2       -6.184157e-01
        10         2        1.461984e-01
        11         2        1.012592e+00
        12         2        2.928234e-02
        13         2       -1.620967e+00
        14         2        6.181284e-01
        15         2        1.907056e+00
        16         2       -1.931734e+00
        17         2       -6.951060e-02
        18         2        7.138852e-01
        19         2       -2.571158e-01
        20         2        1.394795e+00
        21         2        3.723094e-01
        22         2       -1.012746e-01
        23         2       -3.545285e-01
        24         2       -1.456440e+00
        25         2        1.391459e-01
        26         2        2.648511e-01
        27         2        4.003089e-01
        28         2       -4.266368e-01
        29         2        7.058976e-01
        30         2       -2.606804e-01
        31         2        1.132522e-01
        32         2        8.353835e-01
        33         2       -6.216024e-01
        34         2       -7.011366e-01
        35         2        5.931963e-01
        36         2       -1.877269e+00
        37         2        6.401678e-01
        38         2        3.607996e-01
        39         2       -1.194853e-01
        40         2        1.606491e+00
        41         2       -4.343507e-01
        42         2       -1.062879e+00
        43         2        7.208886e-01
        44         2       -9.967250e-01
        45         2       -1.125427e+00
        46         2        1.158042e+00
        47         2        5.006110e-01
        48         2       -9.753198e-01
        49         2       -1.264133e-01
        50         2       -1.630552e+00
        51         2        2.785055e-03
        52         2       -6.517187e-01
        53         2        1.529943e+00
        54         2        6.139238e-01
        55         2        1.629924e-01
         1         3        2.051065e+00
         2         3       -1.372695e+00
         3         3       -1.167258e-01
         4         3       -4.245267e-01
         5         3       -1.300085e+00
         6         3       -6.048896e-01
         7         3        9.287095e-01
         8         3       -2.060428e+00
         9         3        6.430484e-01
        10         3        2.587196e-01
        11         3       -4.017855e-01
        12         3       -3.589225e-01
        13         3       -1.538009e-01
        14         3        4.484781e-01
        15         3       -3.403235e-01
        16         3       -6.279393e-01
        17         3        2.579671e-01
        18         3       -3.133155e-01
        19         3       -1.244564e+00
        20         3        7.673400e-01
        21         3        8.619042e-01
        22         3        9.033214e-01
        23         3        7.981528e-01
        24         3       -1.123963e+00
        25         3        4.783179e-01
        26         3       -4.351303e-01
        27         3        1.338650e-01
        28         3       -6.320566e-01
        29         3       -1.745959e-01
        30         3        6.600356e-01
        31         3       -1.660309e+00
        32         3        5.412214e-01
        33         3       -8.292293e-01
        34         3        6.824052e-01
        35         3       -3.848136e-01
        36         3       -1.609948e+00
        37         3       -1.735018e+00
        38         3       -4.261609e-01
        39         3        3.913245e-01
        40         3        1.566937e-01
        41         3        1.235848e-02
        42         3        1.514722e-01
        43         3       -1.027636e-01
        44         3        8.408056e-01
        45         3       -5.017015e-01
        46         3        2.224326e-01
        47         3        8.598753e-01
        48         3       -1.005404e+00
        49         3       -1.400617e+00
        50         3        5.174235e-01
        51         3        2.491830e-01
        52         3        7.771606e-01
        53         3       -8.418995e-01
        54         3        6.518056e-01
        55         3        5.612704e-02
         1         4       -6.058001e-02
         2         4       -8.730961e-01
         3         4       -6.570747e-01
         4         4        6.936476e-01
         5         4       -4.484273e-01
         6         4       -1.060526e+00
         7         4       -3.127728e-01
         8         4       -2.625061e+00
         9         4       -4.385721e-01
        10         4       -2.967969e-01
        11         4        1.489016e-01
        12         4        6.717452e-02
        13         4       -5.610008e-01
        14         4       -7.657771e-01
        15         4       -1.013991e+00
        16         4       -1.219619e+00
        17         4       -2.859991e-01
        18         4        4.191332e-01
        19         4       -1.061240e+00
        20         4        7.699991e-01
        21         4       -7.563619e-01
        22         4       -7.664893e-01
        23         4        7.969927e-01
        24         4        6.345613e-01
        25         4       -1.921115e-01
        26         4        1.771524e+00
        27         4        9.763404e-01
        28         4       -8.563736e-01
        29         4       -1.136291e-01
        30         4       -2.376969e+00
        31         4        2.611647e+00
        32         4        5.503616e-01
        33         4        6.168738e-01
        34         4        3.411543e-01
        35         4       -9.350722e-01
        36         4        9.997198e-01
        37         4       -5.554435e-01
        38         4        4.957388e-01
        39         4        4.237100e-01
        40         4        3.728971e-01
        41         4        3.805253e-01
        42         4        1.167077e+00
        43         4       -2.326407e+00
        44         4       -1.142102e+00
        45         4        5.539368e-01
        46         4        4.189608e-01
        47         4       -2.295124e-01
        48         4       -1.573673e+00
        49         4        3.962766e-01
        50         4       -2.823286e-01
        51         4        1.055881e+00
        52         4        1.255927e+00
        53         4       -7.483992e-01
        54         4       -1.200263e+00
        55         4        1.054550e+00
         1         5        9.231604e-02
         2         5       -1.527867e-01
         3         5       -1.378713e+00
         4         5        6.053871e-01
         5         5        3.910709e-02
         6         5       -1.924871e+00
         7         5       -5.466941e-03
         8         5       -1.090858e+00
         9         5        3.458895e-01
        10         5       -8.651450e-01
        11         5        3.604008e-01
        12         5        4.625168e-02
        13         5       -9.136082e-01
        14         5       -2.810719e-01
        15         5       -1.026976e+00
        16         5       -4.049915e-01
        17         5       -1.476808e+00
        18         5       -1.983294e+00
        19         5       -3.539544e-01
        20         5        8.949928e-01
        21         5        1.078904e+00
        22         5       -3.291735e-01
        23         5        7.612854e-01
        24         5        3.845891e-01
        25         5        2.834340e-01
        26         5       -4.429409e-01
        27         5        1.135260e+00
        28         5        1.907861e+00
        29         5       -2.610866e+00
        30         5        1.791143e+00
        31         5       -9.361350e-01
        32         5       -4.995211e-01
        33         5        1.958714e+00
        34         5       -6.211187e-02
        35         5        1.844474e+00
        36         5        1.583290e+00
        37         5        5.762225e-01
        38         5        2.813139e+00
        39         5        6.938232e-01
        40         5        8.948480e-01
        41         5        1.124207e+00
        42         5        1.169618e-01
        43         5        9.040740e-01
        44         5       -2.052553e-01
        45         5       -9.295327e-01
        46         5       -7.183579e-01
        47         5        8.847636e-01
        48         5        5.494711e-01
        49         5        7.220769e-01
        50         5        1.465592e-01
        51         5       -5.925478e-01
        52         5       -1.324116e+00
        53         5        2.750606e-01
        54         5        5.894141e-01
        55         5       -5.845054e-02
;

param theta:=
    1        2.779306e-01
    2        1.231284e+00
    3       -7.954998e-01
    4        7.152639e-01
    5       -1.681190e+00
;
param X_true:=
    1       -9.322130e-01
    2        6.599493e-01
    3        1.484300e+00
    4       -2.366975e+00
    5       -3.926342e-01
    6        3.019062e+00
    7       -1.503515e+00
    8        2.396610e+00
    9       -1.932834e+00
   10        1.261097e+00
   11        6.633152e-01
   12        3.953115e-01
   13       -7.542851e-01
   14        2.419293e-01
   15        3.809295e+00
   16       -1.595730e+00
   17        1.715117e+00
   18        4.379442e+00
   19        9.495109e-01
   20        4.515187e-01
   21       -2.800846e+00
   22       -8.939789e-01
   23       -2.257984e+00
   24       -5.022547e-01
   25       -8.662102e-01
   26        2.753982e+00
   27       -8.099655e-01
   28       -3.739166e+00
   29        5.365865e+00
   30       -4.604933e+00
   31        5.183564e+00
   32        1.882806e+00
   33       -3.018640e+00
   34       -1.274565e+00
   35       -2.578398e+00
   36       -3.247560e+00
   37        9.530969e-01
   38       -3.994990e+00
   39       -1.122724e+00
   40        5.099390e-01
   41       -2.039337e+00
   42       -4.220686e-01
   43       -1.870717e+00
   44       -2.496967e+00
   45        6.980768e-01
   46        3.032278e+00
   47       -1.501489e+00
   48       -2.238238e+00
   49        5.469320e-02
   50       -3.095463e+00
   51        1.307755e+00
   52        1.486448e+00
   53        1.016140e+00
   54       -1.300979e+00
   55        6.076200e-01
;
param X:=
    1        9.829797e-01
    2       -5.956903e-01
    3       -1.887772e+00
    4       -3.365021e-01
    5       -5.140945e-01
    6       -7.210829e-01
    7       -1.275719e-01
    8       -1.614329e+00
    9       -1.192958e+00
   10       -7.168178e-02
   11       -2.633817e-01
   12       -4.169489e-01
   13       -1.496678e+00
   14       -1.127223e+00
   15       -4.288699e-01
   16       -1.595730e+00
   17       -1.753759e+00
   18       -1.187895e-01
   19       -8.237434e-01
   20        2.068590e+00
   21       -9.561839e-01
   22       -4.786839e-01
   23        7.415900e-01
   24        9.138558e-01
   25       -8.662102e-01
   26        2.753982e+00
   27        5.194091e-01
   28        1.153257e-01
   29       -6.192161e-01
   30       -9.479994e-01
   31        5.183564e+00
   32        9.503937e-01
   33        1.729256e-01
   34       -6.018130e-01
   35       -3.940416e-01
   36       -5.071529e-01
   37        4.923123e-01
   38        6.826262e-01
   39        7.213273e-01
   40        5.099390e-01
   41        6.369232e-01
   42        1.158937e+00
   43       -1.870717e+00
   44       -9.943919e-01
   45       -2.426707e-01
   46        7.901093e-01
   47        2.174433e-01
   48       -2.238238e+00
   49        8.138828e-01
   50       -9.980044e-01
   51        9.893658e-02
   52        8.751480e-01
   53        8.943307e-03
   54       -1.300979e+00
   55        4.942245e-01
;
param outliervec:=
    1    1
    2    1
    3    1
    4    1
    5    1
    6    1
    7    1
    8    1
    9    1
   10    1
   11    1
   12    1
   13    1
   14    1
   15    1
   16    0
   17    1
   18    1
   19    1
   20    1
   21    1
   22    1
   23    1
   24    1
   25    0
   26    0
   27    1
   28    1
   29    1
   30    1
   31    0
   32    1
   33    1
   34    1
   35    1
   36    1
   37    1
   38    1
   39    1
   40    0
   41    1
   42    1
   43    0
   44    1
   45    1
   46    1
   47    1
   48    0
   49    1
   50    1
   51    1
   52    1
   53    1
   54    0
   55    1
; 
param greedy_time :=         2.791784e-01
;